c 
c G(k,n,p) graph
c graph gen seed     : 2729
c number of vertices : 50
c max number of edges: 625
c number of classes  : 2
c edge density       : 0.400000
c edge probability   : 0.800000
c data structure     : dense
c
c           Graph Stats
c number of vertices  : 50
c nonisolated vertices: 50
c number of edges     : 500
c edge density        : 0.408163
c max degree          : 25
c avg degree          : 20.00
c min degree          : 16
p col 50 500
e 1 3
e 1 4
e 1 5
e 1 7
e 1 8
e 1 9
e 1 11
e 1 12
e 1 16
e 1 18
e 1 23
e 1 24
e 1 26
e 1 28
e 1 37
e 1 38
e 1 40
e 1 41
e 1 49
e 2 3
e 2 5
e 2 7
e 2 8
e 2 9
e 2 11
e 2 12
e 2 16
e 2 17
e 2 18
e 2 20
e 2 21
e 2 23
e 2 26
e 2 27
e 2 37
e 2 38
e 2 40
e 2 41
e 2 46
e 2 47
e 2 49
e 3 6
e 3 10
e 3 13
e 3 15
e 3 19
e 3 25
e 3 29
e 3 31
e 3 32
e 3 34
e 3 35
e 3 36
e 3 39
e 3 44
e 3 45
e 3 48
e 4 6
e 4 10
e 4 13
e 4 15
e 4 19
e 4 25
e 4 29
e 4 30
e 4 31
e 4 32
e 4 33
e 4 34
e 4 35
e 4 36
e 4 39
e 4 42
e 4 43
e 4 44
e 4 45
e 4 48
e 4 50
e 5 10
e 5 13
e 5 14
e 5 15
e 5 19
e 5 25
e 5 29
e 5 30
e 5 31
e 5 32
e 5 33
e 5 34
e 5 35
e 5 36
e 5 42
e 5 44
e 5 45
e 5 48
e 5 50
e 6 7
e 6 8
e 6 11
e 6 12
e 6 16
e 6 17
e 6 18
e 6 20
e 6 21
e 6 22
e 6 23
e 6 26
e 6 28
e 6 37
e 6 40
e 6 41
e 6 46
e 6 49
e 7 10
e 7 14
e 7 15
e 7 19
e 7 25
e 7 29
e 7 31
e 7 32
e 7 33
e 7 34
e 7 35
e 7 39
e 7 42
e 7 43
e 7 44
e 7 45
e 7 48
e 7 50
e 8 10
e 8 13
e 8 15
e 8 25
e 8 29
e 8 31
e 8 32
e 8 33
e 8 34
e 8 35
e 8 36
e 8 39
e 8 42
e 8 43
e 8 44
e 8 45
e 8 48
e 8 50
e 9 10
e 9 13
e 9 14
e 9 19
e 9 25
e 9 29
e 9 30
e 9 31
e 9 32
e 9 33
e 9 34
e 9 36
e 9 39
e 9 43
e 9 44
e 9 45
e 9 50
e 10 11
e 10 12
e 10 16
e 10 17
e 10 18
e 10 20
e 10 21
e 10 22
e 10 23
e 10 24
e 10 26
e 10 27
e 10 28
e 10 37
e 10 38
e 10 40
e 10 41
e 10 47
e 10 49
e 11 13
e 11 14
e 11 19
e 11 25
e 11 29
e 11 30
e 11 32
e 11 33
e 11 34
e 11 35
e 11 36
e 11 39
e 11 42
e 11 43
e 11 44
e 11 48
e 11 50
e 12 13
e 12 14
e 12 19
e 12 25
e 12 29
e 12 30
e 12 31
e 12 32
e 12 33
e 12 34
e 12 36
e 12 39
e 12 42
e 12 43
e 12 44
e 12 45
e 12 48
e 12 50
e 13 16
e 13 17
e 13 18
e 13 20
e 13 21
e 13 22
e 13 27
e 13 28
e 13 37
e 13 38
e 13 40
e 13 41
e 13 46
e 13 47
e 13 49
e 14 17
e 14 18
e 14 22
e 14 23
e 14 26
e 14 27
e 14 28
e 14 37
e 14 40
e 14 41
e 14 46
e 14 47
e 14 49
e 15 16
e 15 17
e 15 18
e 15 20
e 15 21
e 15 22
e 15 24
e 15 26
e 15 27
e 15 38
e 15 46
e 15 47
e 15 49
e 16 19
e 16 25
e 16 29
e 16 30
e 16 31
e 16 33
e 16 34
e 16 35
e 16 36
e 16 39
e 16 42
e 16 43
e 16 44
e 16 45
e 16 48
e 16 50
e 17 19
e 17 25
e 17 29
e 17 30
e 17 31
e 17 33
e 17 35
e 17 39
e 17 42
e 17 43
e 17 45
e 17 48
e 17 50
e 18 19
e 18 29
e 18 30
e 18 31
e 18 33
e 18 34
e 18 35
e 18 36
e 18 39
e 18 43
e 18 44
e 18 45
e 18 48
e 18 50
e 19 20
e 19 21
e 19 22
e 19 23
e 19 24
e 19 26
e 19 27
e 19 40
e 19 41
e 19 46
e 19 47
e 19 49
e 20 25
e 20 29
e 20 30
e 20 31
e 20 32
e 20 33
e 20 34
e 20 35
e 20 36
e 20 39
e 20 42
e 20 43
e 20 44
e 20 45
e 20 48
e 21 30
e 21 31
e 21 32
e 21 33
e 21 39
e 21 42
e 21 43
e 21 44
e 21 45
e 21 50
e 22 25
e 22 30
e 22 32
e 22 34
e 22 35
e 22 36
e 22 39
e 22 42
e 22 43
e 22 44
e 22 45
e 22 48
e 23 25
e 23 29
e 23 31
e 23 33
e 23 35
e 23 39
e 23 43
e 23 44
e 23 48
e 23 50
e 24 25
e 24 29
e 24 32
e 24 34
e 24 35
e 24 36
e 24 39
e 24 42
e 24 43
e 24 44
e 24 48
e 24 50
e 25 26
e 25 27
e 25 28
e 25 37
e 25 38
e 25 41
e 25 46
e 25 47
e 26 29
e 26 30
e 26 31
e 26 32
e 26 33
e 26 34
e 26 35
e 26 36
e 26 43
e 26 44
e 27 29
e 27 31
e 27 33
e 27 34
e 27 35
e 27 36
e 27 39
e 27 42
e 27 43
e 27 45
e 27 48
e 27 50
e 28 29
e 28 30
e 28 31
e 28 32
e 28 33
e 28 34
e 28 35
e 28 43
e 28 45
e 28 48
e 28 50
e 29 37
e 29 41
e 29 46
e 29 47
e 29 49
e 30 37
e 30 38
e 30 41
e 30 47
e 31 37
e 31 38
e 31 40
e 31 41
e 31 46
e 31 47
e 32 38
e 32 40
e 32 46
e 32 49
e 33 37
e 33 38
e 33 41
e 33 46
e 33 47
e 33 49
e 34 37
e 34 38
e 34 41
e 34 47
e 34 49
e 35 37
e 35 38
e 35 40
e 35 41
e 35 46
e 35 49
e 36 37
e 36 38
e 36 40
e 36 41
e 36 46
e 36 47
e 36 49
e 37 42
e 37 43
e 37 44
e 37 45
e 37 48
e 38 42
e 38 44
e 38 45
e 38 48
e 38 50
e 39 40
e 39 46
e 39 47
e 39 49
e 40 42
e 40 43
e 40 44
e 40 45
e 40 48
e 40 50
e 41 42
e 41 43
e 41 44
e 41 45
e 41 48
e 41 50
e 42 46
e 42 47
e 42 49
e 43 46
e 43 47
e 44 47
e 45 46
e 45 49
e 46 48
e 47 48
e 47 50
e 48 49
e 49 50
